c CNF file corresponding to a (partial) station packing problem.
p cnf 2922 229
1 2 3 4 5 6 7 8 9 10 11 12 13 14 0
-1 -2 0
-1 -3 0
-1 -4 0
-1 -5 0
-1 -6 0
-1 -7 0
-1 -8 0
-1 -9 0
-1 -10 0
-1 -11 0
-1 -12 0
-1 -13 0
-1 -14 0
-2 -3 0
-2 -4 0
-2 -5 0
-2 -6 0
-2 -7 0
-2 -8 0
-2 -9 0
-2 -10 0
-2 -11 0
-2 -12 0
-2 -13 0
-2 -14 0
-3 -4 0
-3 -5 0
-3 -6 0
-3 -7 0
-3 -8 0
-3 -9 0
-3 -10 0
-3 -11 0
-3 -12 0
-3 -13 0
-3 -14 0
-4 -5 0
-4 -6 0
-4 -7 0
-4 -8 0
-4 -9 0
-4 -10 0
-4 -11 0
-4 -12 0
-4 -13 0
-4 -14 0
-5 -6 0
-5 -7 0
-5 -8 0
-5 -9 0
-5 -10 0
-5 -11 0
-5 -12 0
-5 -13 0
-5 -14 0
-6 -7 0
-6 -8 0
-6 -9 0
-6 -10 0
-6 -11 0
-6 -12 0
-6 -13 0
-6 -14 0
-7 -8 0
-7 -9 0
-7 -10 0
-7 -11 0
-7 -12 0
-7 -13 0
-7 -14 0
-8 -9 0
-8 -10 0
-8 -11 0
-8 -12 0
-8 -13 0
-8 -14 0
-9 -10 0
-9 -11 0
-9 -12 0
-9 -13 0
-9 -14 0
-10 -11 0
-10 -12 0
-10 -13 0
-10 -14 0
-11 -12 0
-11 -13 0
-11 -14 0
-12 -13 0
-12 -14 0
-13 -14 0
2906 2907 2908 2909 2910 2911 2912 2913 2914 2915 2916 2917 2918 2919 2920 2921 2922 0
-2906 -2907 0
-2906 -2908 0
-2906 -2909 0
-2906 -2910 0
-2906 -2911 0
-2906 -2912 0
-2906 -2913 0
-2906 -2914 0
-2906 -2915 0
-2906 -2916 0
-2906 -2917 0
-2906 -2918 0
-2906 -2919 0
-2906 -2920 0
-2906 -2921 0
-2906 -2922 0
-2907 -2908 0
-2907 -2909 0
-2907 -2910 0
-2907 -2911 0
-2907 -2912 0
-2907 -2913 0
-2907 -2914 0
-2907 -2915 0
-2907 -2916 0
-2907 -2917 0
-2907 -2918 0
-2907 -2919 0
-2907 -2920 0
-2907 -2921 0
-2907 -2922 0
-2908 -2909 0
-2908 -2910 0
-2908 -2911 0
-2908 -2912 0
-2908 -2913 0
-2908 -2914 0
-2908 -2915 0
-2908 -2916 0
-2908 -2917 0
-2908 -2918 0
-2908 -2919 0
-2908 -2920 0
-2908 -2921 0
-2908 -2922 0
-2909 -2910 0
-2909 -2911 0
-2909 -2912 0
-2909 -2913 0
-2909 -2914 0
-2909 -2915 0
-2909 -2916 0
-2909 -2917 0
-2909 -2918 0
-2909 -2919 0
-2909 -2920 0
-2909 -2921 0
-2909 -2922 0
-2910 -2911 0
-2910 -2912 0
-2910 -2913 0
-2910 -2914 0
-2910 -2915 0
-2910 -2916 0
-2910 -2917 0
-2910 -2918 0
-2910 -2919 0
-2910 -2920 0
-2910 -2921 0
-2910 -2922 0
-2911 -2912 0
-2911 -2913 0
-2911 -2914 0
-2911 -2915 0
-2911 -2916 0
-2911 -2917 0
-2911 -2918 0
-2911 -2919 0
-2911 -2920 0
-2911 -2921 0
-2911 -2922 0
-2912 -2913 0
-2912 -2914 0
-2912 -2915 0
-2912 -2916 0
-2912 -2917 0
-2912 -2918 0
-2912 -2919 0
-2912 -2920 0
-2912 -2921 0
-2912 -2922 0
-2913 -2914 0
-2913 -2915 0
-2913 -2916 0
-2913 -2917 0
-2913 -2918 0
-2913 -2919 0
-2913 -2920 0
-2913 -2921 0
-2913 -2922 0
-2914 -2915 0
-2914 -2916 0
-2914 -2917 0
-2914 -2918 0
-2914 -2919 0
-2914 -2920 0
-2914 -2921 0
-2914 -2922 0
-2915 -2916 0
-2915 -2917 0
-2915 -2918 0
-2915 -2919 0
-2915 -2920 0
-2915 -2921 0
-2915 -2922 0
-2916 -2917 0
-2916 -2918 0
-2916 -2919 0
-2916 -2920 0
-2916 -2921 0
-2916 -2922 0
-2917 -2918 0
-2917 -2919 0
-2917 -2920 0
-2917 -2921 0
-2917 -2922 0
-2918 -2919 0
-2918 -2920 0
-2918 -2921 0
-2918 -2922 0
-2919 -2920 0
-2919 -2921 0
-2919 -2922 0
-2920 -2921 0
-2920 -2922 0
-2921 -2922 0
